Version identifier: 22.1.1.0 | 2022-11-28 | 9160aff4d
CPXPARAM_Threads                                 1
CPXPARAM_MIP_Strategy_VariableSelect             3
CPXPARAM_TimeLimit                               599.99999374100003
1 of 1 MIP starts provided solutions.
MIP start 'm1' defined initial solution with objective 113.0000.
Tried aggregator 1 time.
MIP Presolve eliminated 325 rows and 1550 columns.
Reduced MIP has 1856 rows, 2170 columns, and 19426 nonzeros.
Reduced MIP has 2170 binaries, 0 generals, 0 SOSs, and 0 indicators.
Presolve time = 0.01 sec. (11.45 ticks)
Probing time = 0.00 sec. (3.16 ticks)
Tried aggregator 1 time.
Detecting symmetries...
Reduced MIP has 1856 rows, 2170 columns, and 19426 nonzeros.
Reduced MIP has 2170 binaries, 0 generals, 0 SOSs, and 0 indicators.
Presolve time = 0.01 sec. (10.95 ticks)
Probing time = 0.00 sec. (3.16 ticks)
Clique table members: 926.
MIP emphasis: balance optimality and feasibility.
MIP search method: dynamic search.
Parallel mode: none, using 1 thread.
Root relaxation solution time = 0.01 sec. (18.52 ticks)

        Nodes                                         Cuts/
   Node  Left     Objective  IInf  Best Integer    Best Bound    ItCnt     Gap

*     0+    0                          113.0000     2170.0000              --- 
      0     0      310.0000    20      113.0000      310.0000      712  174.34%
*     0+    0                          310.0000      310.0000             0.00%
      0     0        cutoff            310.0000      310.0000      712    0.00%
Elapsed time = 0.06 sec. (83.06 ticks, tree = 0.01 MB, solutions = 2)

Root node processing (before b&c):
  Real time             =    0.06 sec. (83.21 ticks)
Sequential b&c:
  Real time             =    0.00 sec. (0.00 ticks)
                          ------------
Total (root+branch&cut) =    0.06 sec. (83.21 ticks)
Primal:	310
Dual:	310
Status:	Optimal
Time:	0.06
Sequence:
	0
	5
	9
	9
	9
	9
	9
	9
	9
	9
	9
	9
	0
	5
	5
	9
	9
	9
	0
	9
	9
	9
	0
	9
	9
	9
	9
	9
	9
	9
	9
	9
	9
	9
	9
	9
	9
	9
	1
	5
	0
	9
	9
	5
	9
	0
	6
	9
	1
	5
	9
	4
	9
	6
	9
	9
	9
	9
	9
	9
	9
	9
	9
	9
	9
	9
	9
	9
	5
	9
	9
	9
	9
	9
	9
	9
	5
	9
	0
	9
	4
	9
	0
	4
	4
	0
	5
	9
	0
	5
	4
	9
	1
	4
	0
	5
	1
	4
	9
	4
	1
	0
	9
	5
	4
	1
	0
	1
	9
	5
	0
	1
	9
	0
	9
	9
	0
	9
	9
	9
	9
	9
	9
	5
	5
	9
	9
	6
	9
	5
	9
	4
	4
	9
	4
	9
	0
	5
	4
	0
	9
	5
	1
	4
	0
	9
	5
	4
	9
	4
	9
	0
	4
	4
	0
	4
	4
	9
	4
	4
	0
	4
	1
	5
	9
	0
	5
	1
	4
	0
	5
	9
	0
	5
	5
	9
	5
	0
	4
	9
	4
	0
	4
	4
	0
	4
	4
	0
	5
	4
	1
	5
	0
	4
	5
	0
	4
	5
	0
	4
	5
	0
	9
	5
	0
	4
	9
	6
	0
	9
	4
	4
	0
	4
	1
	0
	5
	9
	0
	6
	4
	1
	0
	4
	1
	5
	5
	9
	5
	5
	9
	0
	5
	1
	9
	1
	1
	2
	1
	1
	1
	9
	9
	1
	1
	1
	9
	1
	5
	1
	9
	1
	0
	1
	9
	1
	1
	1
	9
	0
	1
	1
	4
	1
	4
	4
	1
	5
	5
	9
	5
	0
	4
	5
	1
	1
	4
	1
	1
	1
	4
	4
	1
	1
	4
	4
	9
	5
	0
	1
	9
	0
	5
	4
	1
	0
	9
	5
	9
	9
	0
	4
	4
	0
	9
	9
	0
	9
	6
	0
